p wcnf 195 229 230 
1 -12 -40 0 
1 -69 -41 0 
1 -190 140 0 
1 127 -64 0 
1 54 18 0 
1 -23 161 0 
1 -155 151 0 
1 4 194 0 
1 -56 11 0 
1 71 -122 0 
1 30 -128 0 
1 -184 116 0 
1 -55 -94 0 
1 -59 -152 0 
1 -24 18 0 
1 195 -52 0 
1 -133 75 0 
1 154 86 0 
1 -46 88 0 
1 -5 -121 0 
1 31 -96 0 
1 112 50 0 
1 -130 107 0 
1 -79 -10 0 
1 -86 -117 0 
1 -129 -127 0 
1 -123 -111 0 
1 162 -127 0 
1 41 82 0 
1 -81 2 0 
1 95 -168 0 
1 -64 10 0 
1 -74 59 0 
1 -166 -37 0 
1 172 127 0 
1 -180 102 0 
1 -171 123 0 
1 89 181 0 
1 9 -106 0 
1 159 -20 0 
1 67 -81 0 
1 64 2 0 
1 15 -148 0 
1 120 102 0 
1 -160 37 0 
1 -164 191 0 
1 20 -47 0 
1 -6 -45 0 
1 -1 49 0 
1 31 146 0 
1 -103 182 0 
1 80 -185 0 
1 93 -115 0 
1 163 78 0 
1 -144 57 0 
1 -135 -90 0 
1 -138 -140 0 
1 -52 16 0 
1 17 -124 0 
1 170 -173 0 
1 26 -116 0 
1 35 -172 0 
1 84 -58 0 
1 -38 10 0 
1 -85 -179 0 
1 -145 64 0 
1 130 120 0 
1 -56 192 0 
1 151 31 0 
1 167 25 0 
1 39 -179 0 
1 -125 143 0 
1 143 -41 0 
1 186 93 0 
1 -160 -152 0 
1 -139 -187 0 
1 -53 -124 0 
1 161 146 0 
1 57 193 0 
1 -185 -37 0 
1 140 -42 0 
1 53 -180 0 
1 -29 -118 0 
1 18 50 0 
1 66 -141 0 
1 -4 -168 0 
1 177 23 0 
1 -172 -111 0 
1 -170 -23 0 
1 -150 46 0 
1 182 -121 0 
1 -117 63 0 
1 -150 121 0 
1 7 -147 0 
1 5 -143 0 
1 107 -190 0 
1 84 -142 0 
1 -35 -124 0 
1 -18 -5 0 
1 164 -2 0 
1 140 -161 0 
1 -58 1 0 
1 -25 103 0 
1 52 -139 0 
1 177 114 0 
1 161 170 0 
1 -129 -157 0 
1 72 -56 0 
1 -34 -24 0 
1 90 127 0 
1 -139 -156 0 
1 -21 -47 0 
1 34 97 0 
1 -20 67 0 
1 -50 -191 0 
1 77 59 0 
1 -98 -165 0 
1 52 -189 0 
1 -195 -7 0 
1 66 -168 0 
1 -165 -136 0 
1 -110 -56 0 
1 117 -162 0 
1 -147 12 0 
1 67 -150 0 
1 -143 -10 0 
1 -66 -170 0 
1 95 64 0 
1 -44 -175 0 
1 138 48 0 
1 -184 51 0 
1 43 36 0 
1 -100 180 0 
1 73 -194 0 
1 -143 -57 0 
1 -112 5 0 
1 -104 152 0 
1 -106 -63 0 
1 -103 -84 0 
1 110 15 0 
1 -30 -94 0 
1 -34 3 0 
1 2 90 0 
1 164 -127 0 
1 43 -57 0 
1 -17 160 0 
1 -44 -88 0 
1 -159 -193 0 
1 -20 35 0 
1 -44 182 0 
1 76 -86 0 
1 117 64 0 
1 -22 -49 0 
1 -33 -50 0 
1 -8 -4 0 
1 -9 146 0 
1 6 102 0 
1 38 -187 0 
1 72 136 0 
1 -74 -46 0 
1 113 -58 0 
1 -24 -95 0 
1 119 -177 0 
1 -23 143 0 
1 57 -74 0 
1 149 16 0 
1 120 -164 0 
1 41 -115 0 
1 129 -120 0 
1 120 -21 0 
1 -1 73 0 
1 40 -82 0 
1 -27 173 0 
1 95 194 0 
1 96 172 0 
1 -122 142 0 
1 -119 37 0 
1 132 -93 0 
1 189 -22 0 
1 195 118 0 
1 69 -104 0 
1 148 -106 0 
1 -60 -69 0 
1 47 -36 0 
1 -85 -104 0 
1 108 195 0 
1 193 -28 0 
1 -95 133 0 
1 5 -172 0 
1 120 -5 0 
1 -111 156 0 
1 140 171 0 
1 -98 -80 0 
1 -86 180 0 
1 -158 180 0 
1 148 -45 0 
1 7 -94 0 
1 -186 72 0 
1 -1 -12 0 
1 -37 127 0 
1 32 -114 0 
1 -136 -159 0 
1 -154 -90 0 
1 -35 -18 0 
1 -192 114 0 
1 -50 104 0 
1 11 -14 0 
1 151 178 0 
1 -80 -106 0 
1 98 5 0 
1 78 36 0 
1 184 -166 0 
1 -175 -89 0 
1 150 104 0 
1 17 -185 0 
1 -29 -61 0 
1 -134 -147 0 
1 152 112 0 
1 127 70 0 
1 126 -157 0 
1 29 -96 0 
1 -57 39 0 
1 -63 -39 0 
1 -157 -45 0 
1 112 107 0 
1 183 179 0 
1 -40 83 0 
1 -178 177 0 
1 27 -15 0 
